SECTION Graph
Nodes 437
Edges 838
E 1 15 9
E 1 364 3
E 1 377 3
E 2 16 9
E 2 395 3
E 3 374 12
E 3 395 1
E 4 5 10
E 4 325 12
E 4 339 3
E 4 343 3
E 5 340 12
E 5 350 3
E 6 350 1
E 6 357 6
E 7 8 1
E 7 212 8
E 7 223 4
E 7 240 1
E 8 226 4
E 8 243 1
E 8 253 3
E 9 276 1
E 9 286 2
E 10 285 1
E 10 286 1
E 11 12 10
E 11 384 9
E 11 396 2
E 12 404 2
E 13 51 2
E 13 378 2
E 13 385 1
E 13 390 3
E 14 390 10
E 14 400 2
E 14 401 1
E 15 16 10
E 15 347 7
E 15 349 3
E 16 18 7
E 16 374 1
E 17 19 4
E 17 344 2
E 17 347 3
E 17 349 7
E 18 20 4
E 18 347 10
E 18 357 1
E 19 337 6
E 19 342 2
E 19 345 3
E 20 345 10
E 20 350 2
E 21 22 10
E 21 322 1
E 21 323 1
E 21 325 1
E 22 338 1
E 22 340 1
E 23 292 2
E 23 293 2
E 23 298 1
E 23 316 12
E 24 26 2
E 24 298 10
E 24 334 12
E 25 26 10
E 25 27 1
E 25 293 1
E 25 298 2
E 26 28 1
E 27 28 10
E 27 273 7
E 27 291 1
E 28 299 7
E 29 247 2
E 29 253 1
E 29 259 1
E 29 262 2
E 30 264 10
E 30 285 3
E 30 294 1
E 31 32 10
E 31 33 1
E 31 214 2
E 31 241 6
E 32 34 1
E 32 276 6
E 33 34 10
E 33 213 2
E 33 215 1
E 34 36 1
E 35 202 1
E 35 210 1
E 36 215 10
E 37 105 1
E 37 106 6
E 38 106 5
E 39 106 1
E 40 105 6
E 40 106 1
E 41 85 1
E 41 348 1
E 41 351 6
E 42 86 1
E 42 358 6
E 43 44 1
E 43 363 4
E 43 368 1
E 43 376 2
E 44 51 2
E 44 365 4
E 44 378 2
E 45 46 1
E 45 372 4
E 45 381 1
E 45 387 2
E 46 375 4
E 46 388 2
E 46 389 2
E 47 49 6
E 47 87 1
E 47 90 1
E 47 331 20
E 48 88 1
E 48 362 2
E 49 85 1
E 49 335 14
E 50 86 1
E 50 91 6
E 50 348 2
E 51 367 4
E 51 381 1
E 52 87 1
E 52 93 1
E 52 336 20
E 52 356 4
E 53 88 1
E 53 98 2
E 53 380 4
E 54 277 1
E 54 283 1
E 54 307 14
E 55 56 1
E 55 287 12
E 55 302 4
E 55 312 2
E 56 303 4
E 56 311 1
E 56 314 2
E 57 258 12
E 57 277 6
E 57 295 1
E 57 296 1
E 58 99 1
E 58 301 1
E 58 328 17
E 59 60 1
E 59 131 1
E 59 135 1
E 60 136 1
E 60 139 11
E 61 65 13
E 61 142 1
E 61 157 13
E 62 63 1
E 62 122 1
E 63 123 1
E 63 131 13
E 64 120 14
E 64 128 1
E 64 133 1
E 65 132 1
E 65 133 1
E 66 71 1
E 66 162 1
E 66 163 2
E 67 176 1
E 67 177 1
E 67 187 2
E 68 143 1
E 68 144 1
E 68 149 1
E 68 151 10
E 69 148 11
E 69 152 1
E 69 156 1
E 69 157 1
E 70 155 1
E 70 156 1
E 70 159 1
E 70 175 43
E 71 73 1
E 71 161 1
E 72 74 1
E 72 173 1
E 72 176 1
E 72 177 1
E 73 147 43
E 73 160 1
E 74 155 43
E 74 172 1
E 74 175 1
E 75 83 1
E 75 107 10
E 76 107 1
E 76 108 1
E 76 111 2
E 77 79 5
E 77 109 1
E 77 116 10
E 78 109 10
E 78 116 1
E 78 118 1
E 78 124 14
E 79 80 10
E 79 81 5
E 80 82 5
E 80 114 1
E 80 116 5
E 81 82 10
E 81 83 1
E 82 84 1
E 82 110 1
E 83 84 10
E 84 107 1
E 84 108 1
E 85 90 6
E 86 92 6
E 87 333 20
E 87 352 1
E 88 104 2
E 89 203 216
E 90 351 1
E 90 352 1
E 91 92 1
E 91 102 1
E 91 354 2
E 92 358 1
E 92 359 1
E 93 94 1
E 93 352 1
E 93 361 4
E 94 95 1
E 94 100 1
E 94 363 4
E 95 101 1
E 95 360 2
E 95 365 4
E 96 97 1
E 96 359 1
E 96 360 1
E 96 370 4
E 97 98 1
E 97 103 1
E 97 372 4
E 98 104 1
E 98 375 4
E 99 295 1
E 99 300 1
E 100 101 1
E 100 351 1
E 100 352 1
E 101 102 2
E 101 354 1
E 102 359 1
E 102 360 1
E 103 104 1
E 103 358 1
E 103 359 1
E 104 362 1
E 105 111 31
E 108 110 1
E 108 112 2
E 109 121 14
E 110 113 2
E 110 114 5
E 111 112 1
E 112 113 1
E 113 115 5
E 114 115 2
E 114 117 5
E 115 119 5
E 116 117 1
E 117 118 1
E 117 119 2
E 118 120 2
E 118 126 14
E 119 120 1
E 121 122 1
E 121 124 10
E 122 123 1
E 122 125 10
E 123 127 10
E 123 134 13
E 124 125 1
E 124 126 1
E 125 127 1
E 125 130 2
E 126 128 1
E 126 129 2
E 127 129 1
E 127 137 13
E 128 130 1
E 129 132 1
E 129 141 14
E 130 132 1
E 130 133 1
E 131 134 1
E 132 142 13
E 134 135 1
E 134 137 10
E 135 136 1
E 135 138 10
E 136 140 10
E 136 144 11
E 137 138 1
E 137 142 2
E 138 140 1
E 138 141 1
E 139 143 1
E 139 144 1
E 140 145 1
E 140 150 11
E 141 145 1
E 141 146 1
E 142 146 1
E 143 147 1
E 144 150 10
E 145 148 1
E 145 152 11
E 146 148 1
E 147 149 1
E 149 153 10
E 149 160 43
E 150 151 1
E 150 152 1
E 151 153 1
E 151 154 1
E 152 154 1
E 153 155 1
E 153 172 43
E 154 155 1
E 154 156 1
E 156 158 1
E 157 158 1
E 158 159 1
E 159 191 47
E 160 161 1
E 160 172 10
E 161 162 1
E 161 173 10
E 162 165 2
E 162 170 5
E 163 164 1
E 163 165 1
E 164 166 1
E 164 182 11
E 165 168 2
E 165 179 10
E 166 167 1
E 166 168 1
E 167 169 1
E 167 178 8
E 168 169 1
E 168 185 10
E 169 181 8
E 169 188 10
E 170 171 1
E 170 200 13
E 171 174 4
E 171 205 13
E 172 173 1
E 173 174 1
E 174 176 1
E 174 179 2
E 175 177 1
E 176 183 2
E 178 180 1
E 178 181 1
E 179 182 1
E 179 183 1
E 180 184 1
E 180 192 3
E 181 184 1
E 181 200 5
E 182 185 1
E 182 186 1
E 183 186 1
E 183 187 1
E 184 199 4
E 184 204 5
E 185 188 1
E 185 189 1
E 186 189 1
E 186 190 1
E 187 190 1
E 187 191 1
E 188 193 1
E 188 211 6
E 189 193 1
E 189 194 1
E 190 194 1
E 190 195 1
E 191 195 1
E 191 202 3
E 192 196 1
E 192 229 11
E 193 197 1
E 193 220 8
E 194 197 1
E 194 198 1
E 195 198 1
E 195 206 3
E 196 199 1
E 196 203 2
E 197 201 1
E 197 223 8
E 198 201 1
E 198 209 3
E 199 207 2
E 199 216 5
E 200 204 1
E 200 205 1
E 201 212 3
E 201 247 14
E 201 252 15
E 202 206 1
E 203 207 1
E 203 224 7
E 204 208 1
E 204 216 4
E 205 208 1
E 205 217 4
E 206 209 1
E 206 210 1
E 207 221 5
E 207 228 7
E 208 218 4
E 208 219 4
E 209 212 1
E 209 213 1
E 210 213 1
E 210 215 2
E 211 217 2
E 211 233 7
E 212 214 1
E 213 214 1
E 214 233 6
E 216 218 1
E 216 221 2
E 217 219 1
E 217 220 1
E 218 225 2
E 218 231 4
E 219 222 1
E 219 229 3
E 220 222 1
E 220 223 1
E 221 225 1
E 221 245 7
E 222 226 1
E 222 232 3
E 223 226 1
E 224 227 1
E 224 228 1
E 225 238 4
E 225 251 7
E 226 236 3
E 227 230 1
E 227 234 2
E 228 230 1
E 228 245 5
E 229 231 1
E 229 232 1
E 230 237 2
E 230 250 5
E 231 235 1
E 231 238 2
E 232 235 1
E 232 236 1
E 233 240 2
E 233 241 2
E 234 237 1
E 234 277 12
E 235 239 1
E 235 242 2
E 236 239 1
E 236 253 4
E 237 258 5
E 237 283 13
E 238 242 1
E 238 265 7
E 239 246 2
E 239 247 2
E 240 243 1
E 240 244 1
E 241 249 2
E 241 276 10
E 242 246 1
E 242 269 7
E 243 248 1
E 243 257 3
E 244 248 1
E 244 249 1
E 245 250 1
E 245 251 1
E 246 252 1
E 246 272 7
E 247 256 2
E 248 254 1
E 248 260 3
E 249 254 1
E 249 282 10
E 250 255 1
E 250 258 2
E 251 255 1
E 251 265 4
E 252 256 1
E 253 257 1
E 254 264 3
E 254 285 10
E 255 261 2
E 255 268 4
E 256 262 2
E 256 279 7
E 257 259 1
E 257 260 1
E 258 261 1
E 259 263 1
E 259 266 2
E 260 263 1
E 260 264 1
E 261 274 4
E 261 296 12
E 262 266 1
E 262 284 7
E 263 267 1
E 263 270 2
E 264 267 1
E 265 268 1
E 265 269 1
E 266 270 1
E 266 289 7
E 267 273 2
E 267 294 10
E 268 271 1
E 268 274 2
E 269 271 1
E 269 272 1
E 270 273 1
E 270 291 7
E 271 275 1
E 271 278 2
E 272 275 1
E 272 279 2
E 273 299 10
E 274 278 1
E 274 302 12
E 275 280 2
E 275 281 2
E 276 282 2
E 278 280 1
E 278 306 14
E 279 281 1
E 279 284 2
E 280 287 2
E 280 309 14
E 281 287 2
E 281 288 2
E 282 285 1
E 282 286 1
E 283 295 5
E 283 318 18
E 284 288 1
E 284 289 1
E 287 292 2
E 288 290 1
E 288 292 2
E 289 290 1
E 289 291 1
E 290 293 1
E 291 293 1
E 292 312 12
E 294 299 2
E 295 297 1
E 296 297 1
E 296 302 4
E 297 300 1
E 297 303 4
E 298 321 12
E 300 301 1
E 300 304 4
E 301 305 4
E 301 330 17
E 302 303 1
E 303 304 1
E 304 305 1
E 304 306 1
E 305 308 1
E 305 329 12
E 306 308 1
E 306 309 1
E 307 317 5
E 307 318 5
E 308 310 1
E 309 310 1
E 309 311 2
E 310 313 2
E 311 313 1
E 311 315 2
E 312 314 1
E 312 316 2
E 313 319 2
E 313 344 21
E 314 315 1
E 314 320 2
E 315 319 1
E 315 322 2
E 316 320 1
E 316 321 1
E 317 326 4
E 317 327 5
E 318 327 5
E 318 329 6
E 319 324 2
E 319 339 12
E 320 322 1
E 320 323 1
E 321 323 1
E 321 334 10
E 322 324 1
E 323 338 10
E 324 325 1
E 325 340 10
E 326 331 5
E 326 335 7
E 327 328 1
E 327 331 4
E 328 330 1
E 328 333 4
E 329 332 3
E 329 339 6
E 330 336 4
E 330 337 4
E 331 333 1
E 332 337 2
E 332 342 6
E 333 336 1
E 334 338 1
E 335 346 11
E 336 341 4
E 337 341 4
E 339 342 3
E 341 344 4
E 341 346 7
E 342 343 3
E 343 345 2
E 343 350 10
E 344 366 20
E 345 347 4
E 346 349 6
E 346 353 9
E 348 354 6
E 349 364 9
E 351 354 1
E 353 355 3
E 353 364 6
E 355 356 1
E 355 369 6
E 356 361 1
E 356 366 4
E 357 374 7
E 358 362 1
E 360 367 4
E 361 363 1
E 361 368 4
E 363 365 1
E 364 369 3
E 365 367 2
E 366 368 1
E 366 371 2
E 367 370 1
E 368 373 2
E 369 371 1
E 369 377 3
E 370 372 1
E 370 381 4
E 371 373 1
E 371 379 3
E 372 375 1
E 373 376 1
E 373 382 3
E 375 380 2
E 376 378 1
E 376 383 3
E 377 379 1
E 377 395 10
E 378 386 3
E 379 382 1
E 379 397 10
E 380 384 2
E 380 388 4
E 381 385 2
E 382 383 1
E 382 398 10
E 383 386 1
E 383 399 10
E 385 387 1
E 385 391 3
E 386 390 2
E 386 400 10
E 387 389 1
E 387 393 3
E 388 392 2
E 389 392 2
E 389 394 3
E 390 391 1
E 391 393 1
E 391 401 10
E 392 396 3
E 393 394 1
E 393 402 10
E 394 396 2
E 394 403 10
E 395 397 1
E 396 404 10
E 397 398 1
E 398 399 1
E 399 400 1
E 401 402 1
E 402 403 1
E 403 404 2
E 1 405 100000
E 2 405 100000
E 3 405 100000
E 4 406 100000
E 5 406 100000
E 6 406 100000
E 7 407 100000
E 8 407 100000
E 9 407 100000
E 10 407 100000
E 11 408 100000
E 12 408 100000
E 13 409 100000
E 14 409 100000
E 15 410 100000
E 16 410 100000
E 17 411 100000
E 18 411 100000
E 19 412 100000
E 20 412 100000
E 21 413 100000
E 22 413 100000
E 23 414 100000
E 24 414 100000
E 25 415 100000
E 26 415 100000
E 27 416 100000
E 28 416 100000
E 29 417 100000
E 30 417 100000
E 31 418 100000
E 32 418 100000
E 33 419 100000
E 34 419 100000
E 35 420 100000
E 36 420 100000
E 37 421 100000
E 38 421 100000
E 39 421 100000
E 40 421 100000
E 41 422 100000
E 42 422 100000
E 43 422 100000
E 44 422 100000
E 45 422 100000
E 46 422 100000
E 47 422 100000
E 48 422 100000
E 49 423 100000
E 50 423 100000
E 51 423 100000
E 52 423 100000
E 53 423 100000
E 54 424 100000
E 55 424 100000
E 56 424 100000
E 57 424 100000
E 58 424 100000
E 59 425 100000
E 60 425 100000
E 61 425 100000
E 62 426 100000
E 63 426 100000
E 64 426 100000
E 65 426 100000
E 66 427 100000
E 67 427 100000
E 68 428 100000
E 69 428 100000
E 70 428 100000
E 71 429 100000
E 72 429 100000
E 73 430 100000
E 74 430 100000
E 75 431 100000
E 76 431 100000
E 77 432 100000
E 78 432 100000
E 79 433 100000
E 80 433 100000
E 81 434 100000
E 82 434 100000
E 83 435 100000
E 84 435 100000
E 85 436 100000
E 86 436 100000
E 87 436 100000
E 88 436 100000
E 89 437 100000
E 90 422 100000
E 91 422 100000
E 92 422 100000
E 93 423 100000
E 94 423 100000
E 95 423 100000
E 96 423 100000
E 97 423 100000
E 98 423 100000
E 99 424 100000
E 100 436 100000
E 101 436 100000
E 102 436 100000
E 103 436 100000
E 104 436 100000
END

SECTION Terminals
Terminals 33
T 405
T 406
T 407
T 408
T 409
T 410
T 411
T 412
T 413
T 414
T 415
T 416
T 417
T 418
T 419
T 420
T 421
T 422
T 423
T 424
T 425
T 426
T 427
T 428
T 429
T 430
T 431
T 432
T 433
T 434
T 435
T 436
T 437
END

EOF
